Route #1: 26 12 40
Route #2: 32 44 3
Route #3: 16 23 49 24 18
Route #4: 50 25 9
Route #5: 39 31 10
Route #6: 38 11
Route #7: 14 53 7
Route #8: 35 19 54 13 27
Route #9: 45 29 5 15
Route #10: 20 37 36 47
Route #11: 21 48 30
Route #12: 2 28 22
Route #13: 42 41 43 1
Route #14: 33 51 17
Route #15: 6 4 52
Route #16: 8 46 34
Cost 976